&INPUT
  prefix = 'PREFIX'                         ! TODO: same prefix as SCF
  outdir = '../1_SCF/tmp'
/
