&inputpp
  outdir='./tmp'
  prefix = 'PREFIX'                         ! TODO: same prefix
  seedname = 'PREFIX'                       ! TODO: same prefix
  spin_component = 'none'
  write_mmn = .true.
  write_amn = .true.
  write_unk = .false.
/
